language Essence 1.3

letting class be
        function(1 --> 3, 2 --> 9, 3 --> 2, 4 --> 6, 5 --> 8, 6 --> 9, 7 --> 5, 8 --> 2, 9 --> 8, 10 --> 8, 11 --> 5,
                 12 --> 9, 13 --> 10, 14 --> 6, 15 --> 9, 16 --> 3, 17 --> 1, 18 --> 5, 19 --> 6, 20 --> 4, 21 --> 9,
                 22 --> 9, 23 --> 10, 24 --> 7, 25 --> 7, 26 --> 4, 27 --> 8, 28 --> 7, 29 --> 2, 30 --> 3)
letting deck_length be 98
letting deck_width be 26
letting length be
        function(1 --> 6, 2 --> 1, 3 --> 1, 4 --> 1, 5 --> 1, 6 --> 1, 7 --> 1, 8 --> 2, 9 --> 1, 10 --> 1, 11 --> 1,
                 12 --> 1, 13 --> 1, 14 --> 1, 15 --> 1, 16 --> 1, 17 --> 2, 18 --> 1, 19 --> 1, 20 --> 1, 21 --> 1,
                 22 --> 1, 23 --> 1, 24 --> 20, 25 --> 1, 26 --> 2, 27 --> 1, 28 --> 1, 29 --> 1, 30 --> 2)
letting n_classes be 10
letting n_containers be 30
letting separation be function({7, 10} --> 30)
letting width be
        function(1 --> 26, 2 --> 2, 3 --> 11, 4 --> 14, 5 --> 20, 6 --> 24, 7 --> 23, 8 --> 21, 9 --> 20, 10 --> 20,
                 11 --> 3, 12 --> 3, 13 --> 10, 14 --> 2, 15 --> 23, 16 --> 15, 17 --> 24, 18 --> 1, 19 --> 10,
                 20 --> 20, 21 --> 16, 22 --> 13, 23 --> 13, 24 --> 25, 25 --> 25, 26 --> 24, 27 --> 12, 28 --> 6,
                 29 --> 19, 30 --> 1)
